c preprocessed version of rd400.tsp, 395 vertices, 1170 edges
p td 395 1170
0 1
0 2
0 306
0 307
0 308
0 361
1 2
1 362
1 361
2 3
2 306
2 362
4 3
362 3
3 370
3 305
3 306
5 4
303 4
4 372
4 304
4 370
4 351
4 359
4 362
6 5
5 302
5 333
5 372
5 351
6 7
6 373
6 300
6 301
6 302
6 333
8 7
333 7
7 373
7 350
9 8
295 8
8 297
8 373
8 350
9 10
9 295
9 350
9 335
9 334
11 10
295 10
17 10
335 10
16 10
294 10
12 11
11 16
11 391
11 335
11 336
13 12
12 390
12 391
12 336
12 388
12 28
13 14
13 390
13 15
13 391
15 14
14 387
14 389
14 18
14 390
14 17
14 16
15 16
15 391
17 16
16 391
17 18
17 292
17 293
17 294
19 18
286 18
386 18
18 387
18 285
18 292
19 20
19 289
19 386
19 286
277 19
21 20
374 20
386 20
277 20
22 21
385 21
375 21
21 374
386 21
23 22
22 24
26 22
22 25
375 22
385 22
23 24
23 275
23 375
376 23
276 23
25 24
24 275
377 24
256 24
26 25
25 378
377 25
26 27
26 378
26 385
26 379
26 384
27 28
27 379
27 384
29 28
338 28
337 28
336 28
384 28
388 28
379 28
380 28
29 30
381 29
339 29
29 348
29 338
29 349
31 30
381 30
327 30
382 30
349 30
31 32
31 327
31 382
31 383
31 326
31 367
32 33
381 32
32 367
32 368
32 369
32 383
32 323
32 322
34 33
321 33
172 33
209 33
174 33
205 33
175 33
33 197
33 322
33 214
34 35
34 312
34 311
34 175
34 313
34 321
35 36
35 176
35 312
35 175
37 36
36 193
36 181
36 183
36 182
36 312
36 176
38 37
192 37
37 193
37 312
38 39
38 192
38 312
38 311
40 39
310 39
192 39
311 39
194 39
39 195
41 40
307 40
308 40
310 40
40 195
40 309
42 41
41 189
41 306
41 191
41 195
41 307
42 43
42 187
42 304
42 185
42 189
42 305
42 306
44 43
141 43
142 43
186 43
304 43
371 43
187 43
44 45
44 141
44 371
45 46
45 141
45 301
45 371
47 46
298 46
141 46
300 46
301 46
140 46
48 47
47 280
282 47
298 47
47 220
47 281
47 140
49 48
48 279
48 280
48 220
49 50
49 279
49 221
49 220
50 51
50 278
50 251
50 221
50 279
51 52
269 51
51 268
267 51
251 51
51 278
53 52
270 52
251 52
269 52
53 54
53 270
53 226
53 225
53 224
53 251
55 54
61 54
229 54
270 54
226 54
227 54
228 54
56 55
55 266
55 62
55 61
55 263
55 269
55 270
56 57
56 261
56 62
56 263
57 58
57 59
57 60
57 260
57 61
57 62
57 261
58 59
58 260
58 259
58 257
58 258
256 58
60 59
65 59
88 59
66 59
86 59
92 59
59 87
256 59
61 60
65 60
64 60
60 63
61 62
61 63
61 229
64 63
63 229
63 230
65 64
64 67
64 255
64 230
65 66
65 255
66 67
66 92
66 255
68 67
91 67
235 67
92 67
255 67
67 230
69 68
68 91
68 235
68 93
68 236
69 70
69 236
69 93
69 122
70 71
70 236
70 122
70 121
71 72
71 121
71 236
73 72
232 72
233 72
72 234
72 236
72 250
74 73
73 250
74 75
74 250
74 240
74 112
75 76
241 75
75 240
75 112
75 244
77 76
133 76
249 76
134 76
112 76
244 76
111 76
78 77
133 77
110 77
77 111
79 78
78 110
78 118
78 133
78 117
78 252
80 79
79 116
79 117
79 252
79 253
80 81
80 116
80 253
82 81
254 81
128 81
253 81
116 81
82 83
82 128
82 116
82 119
82 127
83 84
83 119
83 127
83 126
84 85
84 119
84 115
84 126
84 104
85 86
85 126
85 162
85 201
85 104
85 213
86 87
95 86
96 86
86 98
86 103
86 104
88 87
95 87
89 87
125 87
88 89
88 92
88 90
89 90
89 125
91 90
92 90
94 90
125 90
93 90
91 92
91 93
94 93
93 99
122 93
95 94
96 94
94 125
94 97
94 99
96 95
95 125
96 97
96 98
97 98
97 99
98 99
98 103
100 99
122 99
103 99
101 100
121 100
102 100
100 122
100 103
100 120
101 102
101 124
101 120
101 123
102 103
102 124
104 103
124 103
105 104
115 104
104 106
104 123
104 124
105 106
105 107
105 109
105 114
105 115
107 106
123 106
107 108
107 120
107 123
107 109
109 108
110 108
111 108
120 108
109 110
109 114
109 113
110 111
110 113
110 118
112 111
113 114
115 113
117 113
113 118
115 114
115 116
115 117
115 119
117 116
116 119
117 118
121 120
120 123
121 122
124 123
126 127
126 161
126 162
128 127
161 127
129 128
254 128
128 161
130 129
152 129
129 154
160 129
254 129
129 161
130 131
130 150
152 130
130 253
130 252
130 254
130 153
131 132
148 131
131 252
131 149
131 150
133 132
134 132
252 132
132 149
133 134
133 252
135 134
249 134
134 248
134 149
135 136
135 246
135 247
135 248
135 149
137 136
148 136
246 136
218 136
136 149
136 216
137 138
137 246
137 218
139 138
221 138
222 138
242 138
138 243
246 138
218 138
245 138
139 140
139 221
139 220
139 218
141 140
218 140
220 140
142 140
141 142
143 142
218 142
186 142
144 143
143 217
143 218
143 186
144 145
144 217
144 186
144 185
145 146
145 217
145 216
145 219
145 185
145 188
146 147
157 146
166 146
188 146
219 146
146 184
146 183
146 181
148 147
147 156
157 147
219 147
147 216
147 155
148 149
148 150
148 151
148 216
148 156
151 150
153 150
152 151
151 153
151 156
152 153
152 154
152 156
152 155
155 154
160 154
154 159
156 155
157 155
158 155
155 159
157 158
157 166
158 159
158 166
158 165
160 159
163 159
165 159
164 159
160 161
160 162
160 163
162 161
163 162
201 162
215 162
163 164
163 199
163 215
165 164
168 164
164 167
199 164
166 165
165 167
166 167
166 179
166 178
166 181
168 167
179 167
167 180
169 168
168 199
168 180
168 198
169 170
169 180
169 198
170 171
170 180
170 177
170 196
170 198
170 197
172 171
171 196
171 173
171 197
172 173
172 197
172 174
174 173
173 196
174 175
174 196
175 176
175 196
177 176
182 176
196 176
177 178
177 182
177 180
177 196
179 178
178 181
178 180
178 182
179 180
182 181
183 181
184 183
183 190
183 193
183 191
184 185
188 184
184 190
186 185
185 187
188 185
189 185
185 190
186 187
189 190
189 191
191 190
192 191
191 193
194 191
191 195
192 193
192 194
194 195
198 197
209 197
208 197
198 199
198 204
198 207
198 208
200 199
215 199
199 204
200 201
200 215
200 202
200 203
200 204
202 201
201 215
201 213
203 202
202 213
203 204
203 211
203 212
203 213
205 204
207 204
210 204
206 204
204 212
205 206
209 205
205 210
205 214
207 206
209 206
208 206
207 208
209 208
210 211
210 212
210 214
211 212
211 213
211 214
213 214
217 216
218 216
219 216
218 217
221 220
222 221
251 221
222 223
222 224
222 251
222 238
222 243
224 223
238 223
225 223
223 239
224 225
224 251
225 226
225 239
226 227
226 239
227 228
227 239
229 228
232 228
228 230
228 231
228 239
228 237
229 230
231 230
234 230
235 230
232 231
233 231
231 234
232 233
232 237
232 250
232 240
233 234
235 234
234 236
235 236
238 237
240 237
237 239
238 239
238 240
238 241
238 242
238 243
241 240
240 250
241 242
241 244
242 243
242 244
242 245
245 244
249 244
244 248
244 247
246 245
245 247
246 247
247 248
249 248
253 252
254 253
256 257
256 274
256 275
377 256
380 256
257 258
264 257
272 257
273 257
257 274
258 259
264 258
258 263
259 260
262 259
259 263
260 261
262 260
262 261
263 261
262 263
264 263
263 266
265 264
272 264
264 266
265 266
265 272
265 271
265 267
267 266
269 266
268 266
267 268
267 271
267 278
277 267
269 268
270 269
272 271
277 271
276 271
272 273
272 275
276 272
273 274
273 275
274 275
276 275
277 276
376 276
277 278
277 288
277 289
277 374
277 376
279 278
280 278
288 278
279 280
281 280
280 288
280 290
282 281
283 281
281 284
281 287
281 290
283 282
282 299
282 298
283 284
283 296
283 299
283 297
285 284
296 284
287 284
292 284
291 284
286 285
285 291
285 292
286 287
286 289
286 288
286 291
288 287
287 290
287 291
289 288
288 290
293 292
296 292
294 293
293 296
295 294
294 296
295 296
295 297
297 296
298 297
297 299
297 373
298 299
298 300
298 373
300 301
300 373
301 302
301 371
303 302
372 302
302 371
303 304
303 372
303 371
304 305
304 371
304 370
305 306
370 305
307 306
308 307
308 309
308 361
308 316
308 317
310 309
315 309
309 316
310 311
310 315
310 314
311 312
313 311
311 314
313 314
313 319
313 320
313 321
315 314
314 319
315 316
315 319
317 316
316 319
318 317
317 361
317 319
317 324
318 319
318 324
318 323
318 322
320 319
322 319
321 320
320 322
321 322
323 322
323 324
323 369
325 324
324 360
361 324
324 367
324 368
324 369
325 326
325 360
325 367
327 326
356 326
358 326
357 326
367 326
360 326
327 328
327 356
327 349
328 329
328 363
328 356
328 349
330 329
329 347
348 329
363 329
329 349
330 331
330 341
330 364
330 347
330 363
332 331
351 331
352 331
341 331
364 331
365 331
331 342
333 332
332 345
343 332
332 351
332 342
333 334
333 350
333 345
333 351
335 334
344 334
345 334
350 334
335 336
344 335
335 343
337 336
336 343
336 342
336 346
337 338
337 346
337 340
339 338
340 338
339 340
339 347
339 348
341 340
340 346
340 347
341 342
341 346
341 347
343 342
346 342
344 343
343 345
344 345
348 347
348 349
352 351
359 351
353 351
352 353
352 365
353 354
359 353
353 365
353 366
355 354
358 354
357 354
359 354
366 354
355 356
355 366
355 363
355 357
357 356
363 356
358 357
358 359
358 360
359 360
359 362
361 360
362 360
361 362
364 363
363 366
364 365
364 366
365 366
367 368
369 368
375 374
376 374
376 375
377 378
377 380
379 378
380 378
380 379
381 382
381 383
383 382
385 384
386 384
384 388
384 387
385 386
386 387
388 387
389 387
389 388
388 390
389 390
392 71
392 108
392 121
392 393
392 120
392 394
393 394
393 71
393 72
393 73
393 74
394 74
394 108
394 112
394 111
